Problem:    matching
Rows:       16
Columns:    9
Non-zeros:  36
Status:     OPTIMAL
Objective:  incompatibility = 7 (MINimum)

   No.   Row name   St   Activity     Lower bound   Upper bound    Marginal
------ ------------ -- ------------- ------------- ------------- -------------
     1 incompatibility
                    B              7                             
     2 left_matched[1]
                    NS             1             1             =             1 
     3 left_matched[2]
                    NS             1             1             =             1 
     4 left_matched[3]
                    NS             1             1             =             3 
     5 right_matched[1]
                    NS             1             1             =            -2 
     6 right_matched[2]
                    B              1             1             = 
     7 right_matched[3]
                    NS             1             1             =             4 
     8 nonnegative[1,1]
                    NL             0            -0                           4 
     9 nonnegative[1,2]
                    NL             0            -0                           3 
    10 nonnegative[1,3]
                    B              1            -0               
    11 nonnegative[2,1]
                    NL             0            -0                           3 
    12 nonnegative[2,2]
                    B              1            -0               
    13 nonnegative[2,3]
                    NL             0            -0                           1 
    14 nonnegative[3,1]
                    B              1            -0               
    15 nonnegative[3,2]
                    B              0            -0               
    16 nonnegative[3,3]
                    B              0            -0               

   No. Column name  St   Activity     Lower bound   Upper bound    Marginal
------ ------------ -- ------------- ------------- ------------- -------------
     1 matched[1,1] B              0                             
     2 matched[1,2] B              0                             
     3 matched[1,3] B              1                             
     4 matched[2,1] B              0                             
     5 matched[2,2] B              1                             
     6 matched[2,3] B              0                             
     7 matched[3,1] B              1                             
     8 matched[3,2] B              0                             
     9 matched[3,3] B              0                             

Karush-Kuhn-Tucker optimality conditions:

KKT.PE: max.abs.err = 0.00e+00 on row 0
        max.rel.err = 0.00e+00 on row 0
        High quality

KKT.PB: max.abs.err = 0.00e+00 on row 0
        max.rel.err = 0.00e+00 on row 0
        High quality

KKT.DE: max.abs.err = 8.88e-16 on column 1
        max.rel.err = 8.07e-17 on column 1
        High quality

KKT.DB: max.abs.err = 0.00e+00 on row 0
        max.rel.err = 0.00e+00 on row 0
        High quality

End of output
